WARNING: for repeatability, setting FPU to use double precision
============================[ Problem Statistics ]=============================
|                                                                             |
|  Number of variables:        120049                                         |
|  Number of clauses:         3550997                                         |
|  Parse time:                   1.03 s                                       |
|  Eliminated clauses:           0.16 Mb                                      |
|  Simplification time:          1.34 s                                       |
|                                                                             |
============================[ Search Statistics ]==============================
| Conflicts |          ORIGINAL         |          LEARNT          | Progress |
|           |    Vars  Clauses Literals |    Limit  Clauses Lit/Cl |          |
===============================================================================
|       100 |    9535   105109   345685 |    38539      100     32 | 79.039 % |
|       250 |    9535   105109   345685 |    42393      250     28 | 79.039 % |
|       475 |    9535   105109   345685 |    46633      475     42 | 79.039 % |
|       812 |    9535   105109   345685 |    51296      812     48 | 79.039 % |
|      1318 |    9535   105109   345685 |    56426     1318     53 | 79.039 % |
|      2077 |    9535   105109   345685 |    62069     2077     48 | 79.039 % |
|      3216 |    9535   105109   345685 |    68275     3216     51 | 79.039 % |
|      4924 |    9535   105109   345685 |    75103     4924     50 | 79.039 % |
|      7486 |    9535   105109   345685 |    82613     7486     53 | 79.039 % |
|     11330 |    9535   105109   345685 |    90875    11330     57 | 79.039 % |
|     17096 |    9535   105109   345685 |    99962    17096     56 | 79.039 % |
|     25745 |    9535   105109   345685 |   109959    25745     62 | 79.039 % |
|     38719 |    9535   105109   345685 |   120954    38719     62 | 79.039 % |
|     58180 |    9535   105109   345685 |   133050    58180     67 | 79.039 % |
|     87372 |    9535   105109   345685 |   146355    87372     62 | 79.039 % |
|    131161 |    9535   105109   345685 |   160991   131161     61 | 79.039 % |
|    196845 |    9535   105109   345685 |   177090   196845     62 | 79.039 % |
|    295371 |    9535   105109   345685 |   194799    33184     61 | 79.039 % |
|    443160 |    9535   105109   345685 |   214279   180973     68 | 79.039 % |
|    664843 |    9535   105109   345685 |   235706   107902     62 | 79.039 % |
|    997368 |    9535   105109   345685 |   259277   120507     67 | 79.039 % |
|   1496156 |    9535   105109   345685 |   285205   278874     67 | 79.039 % |
|   2244338 |    9535   105109   345685 |   313725   286921     90 | 79.039 % |
|   3366612 |    9535   105109   345685 |   345098   221314     71 | 79.039 % |
|   5050023 |    9535   105109   345685 |   379608   189513     84 | 79.039 % |
|   7575139 |    9535   105109   345685 |   417569   412325     68 | 79.039 % |
|  11362814 |    9535   105109   345685 |   459326   206697     77 | 79.039 % |
===============================================================================
restarts              : 24574
conflicts             : 16558774       (14956 /sec)
decisions             : 82713569       (0.00 % random) (74710 /sec)
propagations          : 1112191278     (1004569 /sec)
conflict literals     : 1330750865     (8.22 % deleted)
Memory used           : 1109.00 MB
CPU time              : 1107.13 s

SATISFIABLE
